
;this file is automatically generated: Mon Nov 02 10:43:04 CST 2020

;declarations generated

(declare-fun type_46878740_2425_41ec_a792_19e2235a949f_Class0 ( Int) Bool)
(declare-fun type_46878740_2425_41ec_a792_19e2235a949f_Class2 ( Int) Bool)
(declare-fun type_46878740_2425_41ec_a792_19e2235a949f_Class1 ( Int) Bool)
(declare-fun type_46878740_2425_41ec_a792_19e2235a949f_Class8 ( Int) Bool)
(declare-fun type_46878740_2425_41ec_a792_19e2235a949f_Class7 ( Int) Bool)
(declare-fun type_46878740_2425_41ec_a792_19e2235a949f_Class9 ( Int) Bool)
(declare-fun type_46878740_2425_41ec_a792_19e2235a949f_Class4 ( Int) Bool)
(declare-fun type_46878740_2425_41ec_a792_19e2235a949f_Class3 ( Int) Bool)
(declare-fun type_46878740_2425_41ec_a792_19e2235a949f_Class6 ( Int) Bool)
(declare-fun type_46878740_2425_41ec_a792_19e2235a949f_Class5 ( Int) Bool)
(declare-fun oclExcludes ( Int Int) Bool)
(declare-fun obj_caecf0f0_8264_4765_be81_f75c2cf48d1e ( Int) Int)
(declare-fun Cardinality ( Int) Int)
(declare-fun type_46878740_2425_41ec_a792_19e2235a949f_Class17 ( Int) Bool)
(declare-fun type_46878740_2425_41ec_a792_19e2235a949f_Class16 ( Int) Bool)
(declare-fun type_46878740_2425_41ec_a792_19e2235a949f_Class13 ( Int) Bool)
(declare-fun oclSelect ( Int Bool) Int)
(declare-fun type_46878740_2425_41ec_a792_19e2235a949f_Class12 ( Int) Bool)
(declare-fun type_46878740_2425_41ec_a792_19e2235a949f_Class15 ( Int) Bool)
(declare-fun type_46878740_2425_41ec_a792_19e2235a949f_Class14 ( Int) Bool)
(declare-fun type_46878740_2425_41ec_a792_19e2235a949f_Class11 ( Int) Bool)
(declare-fun type_46878740_2425_41ec_a792_19e2235a949f_Class10 ( Int) Bool)
(declare-fun Enum0 ( Int) Int)
(declare-fun Enum1 ( Int) Int)
(declare-fun Enum2 ( Int) Int)
(declare-fun container_ ( Int) Int)
(declare-fun oclIncludes ( Int Int) Bool)
(declare-fun ObjAt ( Int Int) Int)

;formula(s) generated
(assert (forall ((p Int)) (=> ( type_46878740_2425_41ec_a792_19e2235a949f_Class17 p )  (and (>= ( Enum2 ( obj_caecf0f0_8264_4765_be81_f75c2cf48d1e p )  )  0) (<= ( Enum2 ( obj_caecf0f0_8264_4765_be81_f75c2cf48d1e p )  )  6)))))
(assert (! (forall ((v Int)) (=> ( type_46878740_2425_41ec_a792_19e2235a949f_Class17 v )  (not (= ( Enum2 ( obj_caecf0f0_8264_4765_be81_f75c2cf48d1e v )  )  5) ))):named l0))
(assert (! (forall ((v Int)) (=> ( type_46878740_2425_41ec_a792_19e2235a949f_Class17 v )  (not (= ( Enum2 ( obj_caecf0f0_8264_4765_be81_f75c2cf48d1e v )  )  3) ))):named l1))
(assert (! (exists ((o Int)) ( type_46878740_2425_41ec_a792_19e2235a949f_Class0 ( obj_caecf0f0_8264_4765_be81_f75c2cf48d1e o )  ) ):named c0))
(assert (! (exists ((o Int)) ( type_46878740_2425_41ec_a792_19e2235a949f_Class1 ( obj_caecf0f0_8264_4765_be81_f75c2cf48d1e o )  ) ):named c1))
(assert (! (exists ((o Int)) (and (and ( type_46878740_2425_41ec_a792_19e2235a949f_Class10 ( obj_caecf0f0_8264_4765_be81_f75c2cf48d1e o )  )  ( type_46878740_2425_41ec_a792_19e2235a949f_Class14 ( obj_caecf0f0_8264_4765_be81_f75c2cf48d1e o )  ) ) ( type_46878740_2425_41ec_a792_19e2235a949f_Class16 ( obj_caecf0f0_8264_4765_be81_f75c2cf48d1e o )  ) )):named c2))
(assert (! (exists ((o Int)) ( type_46878740_2425_41ec_a792_19e2235a949f_Class11 ( obj_caecf0f0_8264_4765_be81_f75c2cf48d1e o )  ) ):named c3))
(assert (! (exists ((o Int)) ( type_46878740_2425_41ec_a792_19e2235a949f_Class12 ( obj_caecf0f0_8264_4765_be81_f75c2cf48d1e o )  ) ):named c4))
(assert (! (exists ((o Int)) ( type_46878740_2425_41ec_a792_19e2235a949f_Class13 ( obj_caecf0f0_8264_4765_be81_f75c2cf48d1e o )  ) ):named c5))
(assert (! (exists ((o Int)) ( type_46878740_2425_41ec_a792_19e2235a949f_Class14 ( obj_caecf0f0_8264_4765_be81_f75c2cf48d1e o )  ) ):named c6))
(assert (! (exists ((o Int)) ( type_46878740_2425_41ec_a792_19e2235a949f_Class15 ( obj_caecf0f0_8264_4765_be81_f75c2cf48d1e o )  ) ):named c7))
(assert (! (exists ((o Int)) (and ( type_46878740_2425_41ec_a792_19e2235a949f_Class16 ( obj_caecf0f0_8264_4765_be81_f75c2cf48d1e o )  )  ( type_46878740_2425_41ec_a792_19e2235a949f_Class14 ( obj_caecf0f0_8264_4765_be81_f75c2cf48d1e o )  ) )):named c8))
(assert (! (exists ((o Int)) ( type_46878740_2425_41ec_a792_19e2235a949f_Class17 ( obj_caecf0f0_8264_4765_be81_f75c2cf48d1e o )  ) ):named c9))
(assert (! (exists ((o Int)) ( type_46878740_2425_41ec_a792_19e2235a949f_Class2 ( obj_caecf0f0_8264_4765_be81_f75c2cf48d1e o )  ) ):named c10))
(assert (! (exists ((o Int)) ( type_46878740_2425_41ec_a792_19e2235a949f_Class3 ( obj_caecf0f0_8264_4765_be81_f75c2cf48d1e o )  ) ):named c11))
(assert (! (exists ((o Int)) ( type_46878740_2425_41ec_a792_19e2235a949f_Class4 ( obj_caecf0f0_8264_4765_be81_f75c2cf48d1e o )  ) ):named c12))
(assert (! (exists ((o Int)) ( type_46878740_2425_41ec_a792_19e2235a949f_Class5 ( obj_caecf0f0_8264_4765_be81_f75c2cf48d1e o )  ) ):named c13))
(assert (! (exists ((o Int)) ( type_46878740_2425_41ec_a792_19e2235a949f_Class6 ( obj_caecf0f0_8264_4765_be81_f75c2cf48d1e o )  ) ):named c14))
(assert (! (exists ((o Int)) ( type_46878740_2425_41ec_a792_19e2235a949f_Class7 ( obj_caecf0f0_8264_4765_be81_f75c2cf48d1e o )  ) ):named c15))
(assert (! (exists ((o Int)) ( type_46878740_2425_41ec_a792_19e2235a949f_Class8 ( obj_caecf0f0_8264_4765_be81_f75c2cf48d1e o )  ) ):named c16))
(assert (! (exists ((o Int)) ( type_46878740_2425_41ec_a792_19e2235a949f_Class9 ( obj_caecf0f0_8264_4765_be81_f75c2cf48d1e o )  ) ):named c17))

 ;end of formula 